166891.2,52.27,64.81
158034.69,55.19,68.45
148501.3,58.74,72.84
152468.62,57.21,70.94
167594.51,52.05,64.54
164958.35,52.88,65.57
144374.0,60.42,74.92
160531.36,54.34,67.38
157484.31,55.39,68.68
154288.39,56.53,70.11
167911.61,51.95,64.42
147229.7,59.24,73.47
171856.65,50.76,62.94
168377.43,51.8,64.24
177896.95,49.03,60.8
165232.97,52.79,65.46
162072.26,53.82,66.74
154757.67,56.36,69.89
172939.63,50.44,62.55
173467.23,50.28,62.36
